p cnf 200 1110
-101 78 0
-101 27 0
-101 -77 0
-101 -13 0
-101 14 0
-101 -43 0
-101 44 0
-101 32 0
-101 -59 0
-101 17 0
101 -78 -27 77 13 -14 43 -44 -32 59 -17 0
-102 -97 0
-102 24 0
-102 -1 0
-102 55 0
-102 -93 0
-102 44 0
-102 54 0
-102 5 0
-102 66 0
-102 -87 0
102 97 -24 1 -55 93 -44 -54 -5 -66 87 0
-103 62 0
-103 -11 0
-103 54 0
-103 -21 0
-103 2 0
-103 -96 0
-103 -43 0
-103 -26 0
-103 44 0
-103 95 0
103 -62 11 -54 21 -2 96 43 26 -44 -95 0
-104 75 0
-104 64 0
-104 11 0
-104 -70 0
-104 3 0
-104 54 0
-104 9 0
-104 59 0
-104 73 0
-104 72 0
104 -75 -64 -11 70 -3 -54 -9 -59 -73 -72 0
-105 -98 0
-105 -19 0
-105 -40 0
-105 -27 0
-105 -12 0
-105 55 0
-105 33 0
-105 16 0
-105 -43 0
-105 37 0
105 98 19 40 27 12 -55 -33 -16 43 -37 0
-106 53 0
-106 86 0
-106 -27 0
-106 46 0
-106 67 0
-106 2 0
-106 94 0
-106 -79 0
-106 -96 0
-106 -43 0
106 -53 -86 27 -46 -67 -2 -94 79 96 43 0
-107 -85 0
-107 -37 0
-107 -58 0
-107 72 0
-107 -4 0
-107 43 0
-107 48 0
-107 90 0
-107 -64 0
-107 -88 0
107 85 37 58 -72 4 -43 -48 -90 64 88 0
-108 78 0
-108 -65 0
-108 19 0
-108 -47 0
-108 -43 0
-108 62 0
-108 -23 0
-108 5 0
-108 -27 0
-108 91 0
108 -78 65 -19 47 43 -62 23 -5 27 -91 0
-109 -52 0
-109 -15 0
-109 7 0
-109 -92 0
-109 -97 0
-109 -30 0
-109 -58 0
-109 -50 0
-109 31 0
-109 -24 0
109 52 15 -7 92 97 30 58 50 -31 24 0
-110 -12 0
-110 -84 0
-110 27 0
-110 10 0
-110 -20 0
-110 43 0
-110 -30 0
-110 -29 0
-110 79 0
-110 -11 0
110 12 84 -27 -10 20 -43 30 29 -79 11 0
101 102 103 104 105 106 107 108 109 110 0
-111 -61 0
-111 49 0
-111 -11 0
-111 68 0
-111 -5 0
-111 -99 0
-111 50 0
-111 37 0
-111 83 0
-111 67 0
111 61 -49 11 -68 5 99 -50 -37 -83 -67 0
-112 -57 0
-112 91 0
-112 66 0
-112 -83 0
-112 -26 0
-112 -88 0
-112 -77 0
-112 -31 0
-112 32 0
-112 -51 0
112 57 -91 -66 83 26 88 77 31 -32 51 0
-113 -32 0
-113 -98 0
-113 -62 0
-113 90 0
-113 -60 0
-113 -100 0
-113 5 0
-113 -59 0
-113 -49 0
-113 74 0
113 32 98 62 -90 60 100 -5 59 49 -74 0
-114 -76 0
-114 -45 0
-114 22 0
-114 -38 0
-114 19 0
-114 -6 0
-114 89 0
-114 -46 0
-114 -91 0
-114 -43 0
114 76 45 -22 38 -19 6 -89 46 91 43 0
-115 80 0
-115 14 0
-115 -29 0
-115 5 0
-115 -12 0
-115 76 0
-115 24 0
-115 -31 0
-115 -46 0
-115 78 0
115 -80 -14 29 -5 12 -76 -24 31 46 -78 0
-116 41 0
-116 -79 0
-116 -30 0
-116 -47 0
-116 -26 0
-116 12 0
-116 66 0
-116 71 0
-116 46 0
-116 3 0
116 -41 79 30 47 26 -12 -66 -71 -46 -3 0
-117 -46 0
-117 6 0
-117 -37 0
-117 4 0
-117 31 0
-117 17 0
-117 94 0
-117 95 0
-117 -13 0
-117 -50 0
117 46 -6 37 -4 -31 -17 -94 -95 13 50 0
-118 -26 0
-118 -53 0
-118 14 0
-118 66 0
-118 -64 0
-118 -42 0
-118 -55 0
-118 -95 0
-118 -52 0
-118 -82 0
118 26 53 -14 -66 64 42 55 95 52 82 0
-119 56 0
-119 37 0
-119 -46 0
-119 94 0
-119 -65 0
-119 -54 0
-119 -93 0
-119 -26 0
-119 -57 0
-119 96 0
119 -56 -37 46 -94 65 54 93 26 57 -96 0
-120 -18 0
-120 50 0
-120 -87 0
-120 15 0
-120 -53 0
-120 -83 0
-120 -92 0
-120 -38 0
-120 40 0
-120 84 0
120 18 -50 87 -15 53 83 92 38 -40 -84 0
111 112 113 114 115 116 117 118 119 120 0
-121 11 0
-121 35 0
-121 89 0
-121 81 0
-121 29 0
-121 -46 0
-121 -16 0
-121 -96 0
-121 -75 0
-121 -77 0
121 -11 -35 -89 -81 -29 46 16 96 75 77 0
-122 -44 0
-122 68 0
-122 -74 0
-122 -36 0
-122 -34 0
-122 -90 0
-122 67 0
-122 2 0
-122 -97 0
-122 -73 0
122 44 -68 74 36 34 90 -67 -2 97 73 0
-123 70 0
-123 -63 0
-123 -85 0
-123 100 0
-123 -1 0
-123 69 0
-123 -90 0
-123 -60 0
-123 55 0
-123 84 0
123 -70 63 85 -100 1 -69 90 60 -55 -84 0
-124 -99 0
-124 72 0
-124 -14 0
-124 -75 0
-124 17 0
-124 -51 0
-124 71 0
-124 -91 0
-124 -12 0
-124 -13 0
124 99 -72 14 75 -17 51 -71 91 12 13 0
-125 -10 0
-125 -69 0
-125 -82 0
-125 -4 0
-125 36 0
-125 -49 0
-125 -93 0
-125 -70 0
-125 -87 0
-125 71 0
125 10 69 82 4 -36 49 93 70 87 -71 0
-126 -75 0
-126 -53 0
-126 -82 0
-126 -10 0
-126 -64 0
-126 -9 0
-126 -35 0
-126 -93 0
-126 -49 0
-126 46 0
126 75 53 82 10 64 9 35 93 49 -46 0
-127 63 0
-127 4 0
-127 14 0
-127 64 0
-127 30 0
-127 5 0
-127 -37 0
-127 -96 0
-127 -29 0
-127 -21 0
127 -63 -4 -14 -64 -30 -5 37 96 29 21 0
-128 -39 0
-128 27 0
-128 -97 0
-128 18 0
-128 -43 0
-128 59 0
-128 91 0
-128 -88 0
-128 -58 0
-128 78 0
128 39 -27 97 -18 43 -59 -91 88 58 -78 0
-129 79 0
-129 -69 0
-129 -91 0
-129 -100 0
-129 -23 0
-129 -95 0
-129 -39 0
-129 6 0
-129 47 0
-129 51 0
129 -79 69 91 100 23 95 39 -6 -47 -51 0
-130 79 0
-130 23 0
-130 48 0
-130 37 0
-130 42 0
-130 -16 0
-130 55 0
-130 80 0
-130 98 0
-130 -97 0
130 -79 -23 -48 -37 -42 16 -55 -80 -98 97 0
121 122 123 124 125 126 127 128 129 130 0
-131 -21 0
-131 48 0
-131 96 0
-131 16 0
-131 -53 0
-131 47 0
-131 26 0
-131 39 0
-131 32 0
-131 -92 0
131 21 -48 -96 -16 53 -47 -26 -39 -32 92 0
-132 92 0
-132 -2 0
-132 -36 0
-132 -100 0
-132 62 0
-132 91 0
-132 -60 0
-132 7 0
-132 28 0
-132 -48 0
132 -92 2 36 100 -62 -91 60 -7 -28 48 0
-133 -62 0
-133 -1 0
-133 -2 0
-133 75 0
-133 -31 0
-133 56 0
-133 63 0
-133 55 0
-133 -48 0
-133 69 0
133 62 1 2 -75 31 -56 -63 -55 48 -69 0
-134 -82 0
-134 -14 0
-134 37 0
-134 66 0
-134 74 0
-134 -54 0
-134 32 0
-134 30 0
-134 80 0
-134 -86 0
134 82 14 -37 -66 -74 54 -32 -30 -80 86 0
-135 4 0
-135 46 0
-135 96 0
-135 51 0
-135 91 0
-135 -36 0
-135 -31 0
-135 93 0
-135 -86 0
-135 8 0
135 -4 -46 -96 -51 -91 36 31 -93 86 -8 0
-136 -61 0
-136 -46 0
-136 93 0
-136 84 0
-136 88 0
-136 -31 0
-136 -54 0
-136 -30 0
-136 -10 0
-136 -8 0
136 61 46 -93 -84 -88 31 54 30 10 8 0
-137 53 0
-137 90 0
-137 93 0
-137 -54 0
-137 -94 0
-137 66 0
-137 86 0
-137 52 0
-137 -43 0
-137 99 0
137 -53 -90 -93 54 94 -66 -86 -52 43 -99 0
-138 -72 0
-138 4 0
-138 -93 0
-138 -46 0
-138 35 0
-138 -84 0
-138 12 0
-138 -98 0
-138 83 0
-138 -99 0
138 72 -4 93 46 -35 84 -12 98 -83 99 0
-139 -1 0
-139 94 0
-139 -24 0
-139 3 0
-139 -33 0
-139 18 0
-139 -90 0
-139 55 0
-139 -53 0
-139 48 0
139 1 -94 24 -3 33 -18 90 -55 53 -48 0
-140 -96 0
-140 -80 0
-140 97 0
-140 -65 0
-140 18 0
-140 -50 0
-140 -23 0
-140 27 0
-140 77 0
-140 89 0
140 96 80 -97 65 -18 50 23 -27 -77 -89 0
131 132 133 134 135 136 137 138 139 140 0
-141 -17 0
-141 -80 0
-141 51 0
-141 -81 0
-141 -38 0
-141 2 0
-141 -31 0
-141 -25 0
-141 47 0
-141 56 0
141 17 80 -51 81 38 -2 31 25 -47 -56 0
-142 -11 0
-142 24 0
-142 70 0
-142 29 0
-142 -79 0
-142 -67 0
-142 -62 0
-142 -65 0
-142 38 0
-142 -32 0
142 11 -24 -70 -29 79 67 62 65 -38 32 0
-143 73 0
-143 -51 0
-143 21 0
-143 -90 0
-143 28 0
-143 81 0
-143 -39 0
-143 79 0
-143 63 0
-143 -76 0
143 -73 51 -21 90 -28 -81 39 -79 -63 76 0
-144 81 0
-144 -25 0
-144 60 0
-144 79 0
-144 36 0
-144 -7 0
-144 -10 0
-144 17 0
-144 -83 0
-144 63 0
144 -81 25 -60 -79 -36 7 10 -17 83 -63 0
-145 -67 0
-145 36 0
-145 48 0
-145 -43 0
-145 12 0
-145 6 0
-145 -88 0
-145 -13 0
-145 -65 0
-145 5 0
145 67 -36 -48 43 -12 -6 88 13 65 -5 0
-146 29 0
-146 33 0
-146 -39 0
-146 68 0
-146 61 0
-146 51 0
-146 52 0
-146 78 0
-146 6 0
-146 -63 0
146 -29 -33 39 -68 -61 -51 -52 -78 -6 63 0
-147 80 0
-147 44 0
-147 -37 0
-147 87 0
-147 -43 0
-147 23 0
-147 -41 0
-147 -45 0
-147 14 0
-147 -93 0
147 -80 -44 37 -87 43 -23 41 45 -14 93 0
-148 -46 0
-148 -87 0
-148 12 0
-148 -98 0
-148 8 0
-148 -13 0
-148 -70 0
-148 17 0
-148 47 0
-148 15 0
148 46 87 -12 98 -8 13 70 -17 -47 -15 0
-149 1 0
-149 6 0
-149 83 0
-149 -61 0
-149 54 0
-149 -47 0
-149 7 0
-149 32 0
-149 45 0
-149 97 0
149 -1 -6 -83 61 -54 47 -7 -32 -45 -97 0
-150 7 0
-150 -91 0
-150 -85 0
-150 -9 0
-150 -75 0
-150 -80 0
-150 -31 0
-150 -53 0
-150 99 0
-150 35 0
150 -7 91 85 9 75 80 31 53 -99 -35 0
141 142 143 144 145 146 147 148 149 150 0
-151 -93 0
-151 69 0
-151 -54 0
-151 -45 0
-151 -39 0
-151 -14 0
-151 74 0
-151 -17 0
-151 13 0
-151 -95 0
151 93 -69 54 45 39 14 -74 17 -13 95 0
-152 -33 0
-152 -60 0
-152 -52 0
-152 -75 0
-152 74 0
-152 80 0
-152 -15 0
-152 -36 0
-152 -12 0
-152 -82 0
152 33 60 52 75 -74 -80 15 36 12 82 0
-153 -89 0
-153 -29 0
-153 33 0
-153 14 0
-153 -73 0
-153 -65 0
-153 43 0
-153 74 0
-153 -82 0
-153 2 0
153 89 29 -33 -14 73 65 -43 -74 82 -2 0
-154 -10 0
-154 25 0
-154 38 0
-154 34 0
-154 50 0
-154 -15 0
-154 -97 0
-154 9 0
-154 -71 0
-154 96 0
154 10 -25 -38 -34 -50 15 97 -9 71 -96 0
-155 -61 0
-155 -82 0
-155 50 0
-155 -38 0
-155 -16 0
-155 57 0
-155 -24 0
-155 40 0
-155 -3 0
-155 -64 0
155 61 82 -50 38 16 -57 24 -40 3 64 0
-156 -15 0
-156 8 0
-156 -63 0
-156 -33 0
-156 -11 0
-156 -3 0
-156 23 0
-156 -75 0
-156 -34 0
-156 89 0
156 15 -8 63 33 11 3 -23 75 34 -89 0
-157 79 0
-157 53 0
-157 -21 0
-157 -55 0
-157 37 0
-157 16 0
-157 52 0
-157 -88 0
-157 71 0
-157 -70 0
157 -79 -53 21 55 -37 -16 -52 88 -71 70 0
-158 -27 0
-158 67 0
-158 -89 0
-158 79 0
-158 29 0
-158 -81 0
-158 13 0
-158 -14 0
-158 -85 0
-158 9 0
158 27 -67 89 -79 -29 81 -13 14 85 -9 0
-159 60 0
-159 54 0
-159 -41 0
-159 -65 0
-159 13 0
-159 -58 0
-159 -59 0
-159 -92 0
-159 78 0
-159 3 0
159 -60 -54 41 65 -13 58 59 92 -78 -3 0
-160 61 0
-160 -55 0
-160 56 0
-160 -34 0
-160 -32 0
-160 62 0
-160 -4 0
-160 77 0
-160 -29 0
-160 -9 0
160 -61 55 -56 34 32 -62 4 -77 29 9 0
151 152 153 154 155 156 157 158 159 160 0
-161 -16 0
-161 -85 0
-161 9 0
-161 62 0
-161 10 0
-161 -51 0
-161 -28 0
-161 65 0
-161 86 0
-161 -7 0
161 16 85 -9 -62 -10 51 28 -65 -86 7 0
-162 55 0
-162 -25 0
-162 -33 0
-162 -47 0
-162 40 0
-162 61 0
-162 23 0
-162 36 0
-162 46 0
-162 -42 0
162 -55 25 33 47 -40 -61 -23 -36 -46 42 0
-163 -17 0
-163 55 0
-163 -89 0
-163 -77 0
-163 -97 0
-163 -81 0
-163 73 0
-163 -96 0
-163 -30 0
-163 -78 0
163 17 -55 89 77 97 81 -73 96 30 78 0
-164 -77 0
-164 -14 0
-164 -43 0
-164 -47 0
-164 5 0
-164 69 0
-164 26 0
-164 89 0
-164 18 0
-164 12 0
164 77 14 43 47 -5 -69 -26 -89 -18 -12 0
-165 26 0
-165 43 0
-165 -23 0
-165 -68 0
-165 59 0
-165 60 0
-165 67 0
-165 69 0
-165 94 0
-165 -31 0
165 -26 -43 23 68 -59 -60 -67 -69 -94 31 0
-166 -87 0
-166 56 0
-166 44 0
-166 88 0
-166 -47 0
-166 27 0
-166 -94 0
-166 -82 0
-166 13 0
-166 2 0
166 87 -56 -44 -88 47 -27 94 82 -13 -2 0
-167 15 0
-167 -41 0
-167 63 0
-167 97 0
-167 -98 0
-167 51 0
-167 -20 0
-167 9 0
-167 7 0
-167 37 0
167 -15 41 -63 -97 98 -51 20 -9 -7 -37 0
-168 23 0
-168 14 0
-168 15 0
-168 88 0
-168 -49 0
-168 -8 0
-168 58 0
-168 50 0
-168 -1 0
-168 68 0
168 -23 -14 -15 -88 49 8 -58 -50 1 -68 0
-169 94 0
-169 12 0
-169 -63 0
-169 -93 0
-169 55 0
-169 -6 0
-169 99 0
-169 89 0
-169 -19 0
-169 -16 0
169 -94 -12 63 93 -55 6 -99 -89 19 16 0
-170 25 0
-170 -31 0
-170 -61 0
-170 -38 0
-170 13 0
-170 -8 0
-170 7 0
-170 49 0
-170 -89 0
-170 20 0
170 -25 31 61 38 -13 8 -7 -49 89 -20 0
161 162 163 164 165 166 167 168 169 170 0
-171 42 0
-171 -48 0
-171 -67 0
-171 89 0
-171 -9 0
-171 -43 0
-171 64 0
-171 -20 0
-171 99 0
-171 -31 0
171 -42 48 67 -89 9 43 -64 20 -99 31 0
-172 67 0
-172 -33 0
-172 -93 0
-172 -100 0
-172 47 0
-172 -6 0
-172 -92 0
-172 77 0
-172 -60 0
-172 -10 0
172 -67 33 93 100 -47 6 92 -77 60 10 0
-173 13 0
-173 36 0
-173 63 0
-173 79 0
-173 -87 0
-173 -67 0
-173 15 0
-173 59 0
-173 -74 0
-173 6 0
173 -13 -36 -63 -79 87 67 -15 -59 74 -6 0
-174 -15 0
-174 -90 0
-174 35 0
-174 -8 0
-174 77 0
-174 59 0
-174 42 0
-174 4 0
-174 -95 0
-174 -24 0
174 15 90 -35 8 -77 -59 -42 -4 95 24 0
-175 -55 0
-175 26 0
-175 -33 0
-175 80 0
-175 18 0
-175 -77 0
-175 -27 0
-175 -96 0
-175 8 0
-175 -92 0
175 55 -26 33 -80 -18 77 27 96 -8 92 0
-176 -21 0
-176 -69 0
-176 30 0
-176 -87 0
-176 95 0
-176 -65 0
-176 -77 0
-176 80 0
-176 -1 0
-176 39 0
176 21 69 -30 87 -95 65 77 -80 1 -39 0
-177 98 0
-177 4 0
-177 49 0
-177 -97 0
-177 -89 0
-177 41 0
-177 77 0
-177 10 0
-177 -12 0
-177 -84 0
177 -98 -4 -49 97 89 -41 -77 -10 12 84 0
-178 84 0
-178 23 0
-178 -31 0
-178 98 0
-178 22 0
-178 -67 0
-178 39 0
-178 52 0
-178 -38 0
-178 -21 0
178 -84 -23 31 -98 -22 67 -39 -52 38 21 0
-179 -24 0
-179 -56 0
-179 61 0
-179 23 0
-179 -57 0
-179 -27 0
-179 85 0
-179 94 0
-179 60 0
-179 59 0
179 24 56 -61 -23 57 27 -85 -94 -60 -59 0
-180 -61 0
-180 -18 0
-180 16 0
-180 -68 0
-180 21 0
-180 -12 0
-180 -72 0
-180 8 0
-180 -80 0
-180 -43 0
180 61 18 -16 68 -21 12 72 -8 80 43 0
171 172 173 174 175 176 177 178 179 180 0
-181 47 0
-181 60 0
-181 62 0
-181 -5 0
-181 -66 0
-181 43 0
-181 42 0
-181 -30 0
-181 -7 0
-181 -49 0
181 -47 -60 -62 5 66 -43 -42 30 7 49 0
-182 -31 0
-182 55 0
-182 29 0
-182 -26 0
-182 4 0
-182 -2 0
-182 69 0
-182 -64 0
-182 94 0
-182 44 0
182 31 -55 -29 26 -4 2 -69 64 -94 -44 0
-183 88 0
-183 16 0
-183 10 0
-183 -48 0
-183 56 0
-183 8 0
-183 -19 0
-183 -29 0
-183 -4 0
-183 -32 0
183 -88 -16 -10 48 -56 -8 19 29 4 32 0
-184 -62 0
-184 -44 0
-184 26 0
-184 -3 0
-184 14 0
-184 -85 0
-184 70 0
-184 -77 0
-184 99 0
-184 -56 0
184 62 44 -26 3 -14 85 -70 77 -99 56 0
-185 -93 0
-185 51 0
-185 97 0
-185 21 0
-185 40 0
-185 -48 0
-185 43 0
-185 -34 0
-185 84 0
-185 80 0
185 93 -51 -97 -21 -40 48 -43 34 -84 -80 0
-186 -14 0
-186 78 0
-186 98 0
-186 68 0
-186 -66 0
-186 50 0
-186 -10 0
-186 -75 0
-186 85 0
-186 -37 0
186 14 -78 -98 -68 66 -50 10 75 -85 37 0
-187 -34 0
-187 -89 0
-187 65 0
-187 36 0
-187 61 0
-187 -48 0
-187 55 0
-187 64 0
-187 -1 0
-187 -96 0
187 34 89 -65 -36 -61 48 -55 -64 1 96 0
-188 -98 0
-188 -93 0
-188 -88 0
-188 16 0
-188 -72 0
-188 -27 0
-188 -8 0
-188 7 0
-188 -58 0
-188 -91 0
188 98 93 88 -16 72 27 8 -7 58 91 0
-189 100 0
-189 -62 0
-189 -25 0
-189 3 0
-189 -68 0
-189 14 0
-189 21 0
-189 -83 0
-189 77 0
-189 32 0
189 -100 62 25 -3 68 -14 -21 83 -77 -32 0
-190 26 0
-190 28 0
-190 16 0
-190 -7 0
-190 -78 0
-190 9 0
-190 -38 0
-190 -22 0
-190 44 0
-190 -71 0
190 -26 -28 -16 7 78 -9 38 22 -44 71 0
181 182 183 184 185 186 187 188 189 190 0
-191 -13 0
-191 -5 0
-191 93 0
-191 -28 0
-191 1 0
-191 25 0
-191 57 0
-191 97 0
-191 -8 0
-191 11 0
191 13 5 -93 28 -1 -25 -57 -97 8 -11 0
-192 64 0
-192 -47 0
-192 95 0
-192 -62 0
-192 -77 0
-192 57 0
-192 -19 0
-192 29 0
-192 50 0
-192 -85 0
192 -64 47 -95 62 77 -57 19 -29 -50 85 0
-193 81 0
-193 -85 0
-193 51 0
-193 -82 0
-193 -73 0
-193 2 0
-193 -8 0
-193 38 0
-193 -48 0
-193 -19 0
193 -81 85 -51 82 73 -2 8 -38 48 19 0
-194 50 0
-194 -66 0
-194 84 0
-194 -36 0
-194 -26 0
-194 -59 0
-194 -88 0
-194 31 0
-194 71 0
-194 -33 0
194 -50 66 -84 36 26 59 88 -31 -71 33 0
-195 -22 0
-195 74 0
-195 -15 0
-195 -11 0
-195 -66 0
-195 -21 0
-195 -50 0
-195 20 0
-195 30 0
-195 98 0
195 22 -74 15 11 66 21 50 -20 -30 -98 0
-196 -24 0
-196 22 0
-196 -74 0
-196 -34 0
-196 41 0
-196 -94 0
-196 83 0
-196 -58 0
-196 56 0
-196 -100 0
196 24 -22 74 34 -41 94 -83 58 -56 100 0
-197 66 0
-197 -84 0
-197 -46 0
-197 53 0
-197 -67 0
-197 -26 0
-197 54 0
-197 1 0
-197 95 0
-197 -35 0
197 -66 84 46 -53 67 26 -54 -1 -95 35 0
-198 -16 0
-198 97 0
-198 28 0
-198 95 0
-198 60 0
-198 -36 0
-198 -62 0
-198 -33 0
-198 78 0
-198 7 0
198 16 -97 -28 -95 -60 36 62 33 -78 -7 0
-199 -18 0
-199 -76 0
-199 -9 0
-199 -22 0
-199 -20 0
-199 -72 0
-199 -45 0
-199 -90 0
-199 -94 0
-199 -44 0
199 18 76 9 22 20 72 45 90 94 44 0
-200 99 0
-200 -90 0
-200 28 0
-200 -75 0
-200 81 0
-200 -4 0
-200 3 0
-200 -29 0
-200 44 0
-200 -43 0
200 -99 90 -28 75 -81 4 -3 29 -44 43 0
191 192 193 194 195 196 197 198 199 200 0
